p cnf 1329 2847
88 0
28 89 0
27 89 0
28 27 90 0
26 89 0
28 26 90 0
27 26 90 0
28 27 26 91 0
24 92 0
22 92 0
24 22 93 0
20 94 0
16 94 0
20 16 95 0
1 94 0
20 1 95 0
16 1 95 0
20 16 1 96 0
-92 97 0
-93 98 0
-94 97 0
-95 98 0
-96 99 0
-92 -94 98 0
-92 -95 99 0
-92 -96 100 0
-93 -94 99 0
-93 -95 100 0
-93 -96 101 0
-89 102 0
-90 103 0
-91 104 0
-97 102 0
-98 103 0
-99 104 0
-100 105 0
-101 106 0
-89 -97 103 0
-89 -98 104 0
-89 -99 105 0
-89 -100 106 0
-89 -101 107 0
-90 -97 104 0
-90 -98 105 0
-90 -99 106 0
-90 -100 107 0
-90 -101 108 0
-91 -97 105 0
-91 -98 106 0
-91 -99 107 0
-91 -100 108 0
-91 -101 109 0
-109 0
-34 110 0
-33 110 0
-34 -33 111 0
-32 110 0
-34 -32 111 0
-33 -32 111 0
-34 -33 -32 112 0
-110 113 0
-111 114 0
-112 115 0
-103 113 0
-105 114 0
-107 115 0
-109 116 0
-110 -103 114 0
-110 -105 115 0
-110 -107 116 0
-111 -103 115 0
-111 -105 116 0
-112 -103 116 0
-116 0
117 0
-28 118 0
-27 118 0
-28 -27 119 0
-26 118 0
-28 -26 119 0
-27 -26 119 0
-28 -27 -26 120 0
-24 121 0
-22 121 0
-24 -22 122 0
-20 123 0
-16 123 0
-20 -16 124 0
-1 123 0
-20 -1 124 0
-16 -1 124 0
-20 -16 -1 125 0
-121 126 0
-122 127 0
-123 126 0
-124 127 0
-125 128 0
-121 -123 127 0
-121 -124 128 0
-121 -125 129 0
-122 -123 128 0
-122 -124 129 0
-122 -125 130 0
-118 131 0
-119 132 0
-120 133 0
-126 131 0
-127 132 0
-128 133 0
-129 134 0
-130 135 0
-118 -126 132 0
-118 -127 133 0
-118 -128 134 0
-118 -129 135 0
-118 -130 136 0
-119 -126 133 0
-119 -127 134 0
-119 -128 135 0
-119 -129 136 0
-119 -130 137 0
-120 -126 134 0
-120 -127 135 0
-120 -128 136 0
-120 -129 137 0
-120 -130 138 0
-138 0
34 139 0
33 139 0
34 33 140 0
32 139 0
34 32 140 0
33 32 140 0
34 33 32 141 0
-139 142 0
-140 143 0
-141 144 0
-132 142 0
-134 143 0
-136 144 0
-138 145 0
-139 -132 143 0
-139 -134 144 0
-139 -136 145 0
-140 -132 144 0
-140 -134 145 0
-141 -132 145 0
-145 0
146 0
29 147 0
28 147 0
29 28 148 0
27 147 0
29 27 148 0
28 27 148 0
29 28 27 149 0
-146 150 0
-147 150 0
-148 151 0
-149 152 0
-146 -147 151 0
-146 -148 152 0
-146 -149 153 0
26 154 0
25 154 0
26 25 155 0
19 154 0
26 19 155 0
25 19 155 0
26 25 19 156 0
17 157 0
16 157 0
17 16 158 0
2 157 0
17 2 158 0
16 2 158 0
17 16 2 159 0
-154 160 0
-155 161 0
-156 162 0
-157 160 0
-158 161 0
-159 162 0
-154 -157 161 0
-154 -158 162 0
-154 -159 163 0
-155 -157 162 0
-155 -158 163 0
-155 -159 164 0
-156 -157 163 0
-156 -158 164 0
-156 -159 165 0
-150 166 0
-152 167 0
-160 166 0
-162 167 0
-164 168 0
-150 -160 167 0
-150 -162 168 0
-150 -164 169 0
-152 -160 168 0
-152 -162 169 0
-152 -164 170 0
-151 171 0
-153 172 0
-161 171 0
-163 172 0
-165 173 0
-151 -161 172 0
-151 -163 173 0
-151 -165 174 0
-153 -161 173 0
-153 -163 174 0
-153 -165 175 0
-167 176 0
-171 176 0
-167 -171 177 0
-168 178 0
-172 178 0
-168 -172 179 0
-169 180 0
-173 180 0
-169 -173 181 0
-170 182 0
-174 182 0
-170 -174 183 0
-175 0
-38 184 0
-37 184 0
-38 -37 185 0
-36 184 0
-38 -36 185 0
-37 -36 185 0
-38 -37 -36 186 0
-184 187 0
-185 188 0
-186 189 0
-176 187 0
-178 188 0
-180 189 0
-182 190 0
-175 191 0
-184 -176 188 0
-184 -178 189 0
-184 -180 190 0
-184 -182 191 0
-185 -176 189 0
-185 -178 190 0
-185 -180 191 0
-186 -176 190 0
-186 -178 191 0
-191 0
192 0
-29 193 0
-28 193 0
-29 -28 194 0
-27 193 0
-29 -27 194 0
-28 -27 194 0
-29 -28 -27 195 0
-26 196 0
-25 196 0
-26 -25 197 0
-19 196 0
-26 -19 197 0
-25 -19 197 0
-26 -25 -19 198 0
-17 199 0
-16 199 0
-17 -16 200 0
-2 199 0
-17 -2 200 0
-16 -2 200 0
-17 -16 -2 201 0
-196 202 0
-197 203 0
-198 204 0
-199 202 0
-200 203 0
-201 204 0
-196 -199 203 0
-196 -200 204 0
-196 -201 205 0
-197 -199 204 0
-197 -200 205 0
-197 -201 206 0
-198 -199 205 0
-198 -200 206 0
-198 -201 207 0
-193 208 0
-194 209 0
-195 210 0
-202 208 0
-203 209 0
-204 210 0
-205 211 0
-206 212 0
-207 213 0
-193 -202 209 0
-193 -203 210 0
-193 -204 211 0
-193 -205 212 0
-193 -206 213 0
-193 -207 214 0
-194 -202 210 0
-194 -203 211 0
-194 -204 212 0
-194 -205 213 0
-194 -206 214 0
-194 -207 215 0
-195 -202 211 0
-195 -203 212 0
-195 -204 213 0
-195 -205 214 0
-195 -206 215 0
-215 0
38 216 0
37 216 0
38 37 217 0
36 216 0
38 36 217 0
37 36 217 0
38 37 36 218 0
-216 219 0
-217 220 0
-218 221 0
-209 219 0
-211 220 0
-213 221 0
-215 222 0
-216 -209 220 0
-216 -211 221 0
-216 -213 222 0
-217 -209 221 0
-217 -211 222 0
-218 -209 222 0
-222 0
223 0
29 224 0
28 224 0
29 28 225 0
27 226 0
26 226 0
27 26 227 0
25 226 0
27 25 227 0
26 25 227 0
27 26 25 228 0
-224 229 0
-225 230 0
-226 229 0
-227 230 0
-228 231 0
-224 -226 230 0
-224 -227 231 0
-224 -228 232 0
-225 -226 231 0
-225 -227 232 0
-225 -228 233 0
24 234 0
23 234 0
24 23 235 0
21 234 0
24 21 235 0
23 21 235 0
24 23 21 236 0
19 237 0
18 237 0
19 18 238 0
3 237 0
19 3 238 0
18 3 238 0
19 18 3 239 0
-234 240 0
-235 241 0
-236 242 0
-237 240 0
-238 241 0
-239 242 0
-234 -237 241 0
-234 -238 242 0
-234 -239 243 0
-235 -237 242 0
-235 -238 243 0
-235 -239 244 0
-236 -237 243 0
-236 -238 244 0
-236 -239 245 0
-229 246 0
-231 247 0
-233 248 0
-240 246 0
-242 247 0
-244 248 0
-229 -240 247 0
-229 -242 248 0
-229 -244 249 0
-231 -240 248 0
-231 -242 249 0
-231 -244 250 0
-233 -240 249 0
-233 -242 250 0
-233 -244 251 0
-230 252 0
-232 253 0
-241 252 0
-243 253 0
-245 254 0
-230 -241 253 0
-230 -243 254 0
-230 -245 255 0
-232 -241 254 0
-232 -243 255 0
-232 -245 256 0
-247 257 0
-252 257 0
-247 -252 258 0
-248 259 0
-253 259 0
-248 -253 260 0
-249 261 0
-254 261 0
-249 -254 262 0
-250 263 0
-255 263 0
-250 -255 264 0
-251 265 0
-256 265 0
-251 -256 266 0
-42 267 0
-41 267 0
-42 -41 268 0
-40 267 0
-42 -40 268 0
-41 -40 268 0
-42 -41 -40 269 0
-267 270 0
-268 271 0
-269 272 0
-257 270 0
-259 271 0
-261 272 0
-263 273 0
-265 274 0
-267 -257 271 0
-267 -259 272 0
-267 -261 273 0
-267 -263 274 0
-267 -265 275 0
-268 -257 272 0
-268 -259 273 0
-268 -261 274 0
-268 -263 275 0
-269 -257 273 0
-269 -259 274 0
-269 -261 275 0
-275 0
276 0
-276 277 0
-29 277 0
-276 -29 278 0
-28 277 0
-276 -28 278 0
-29 -28 278 0
-276 -29 -28 279 0
-27 280 0
-26 280 0
-27 -26 281 0
-25 280 0
-27 -25 281 0
-26 -25 281 0
-27 -26 -25 282 0
-277 283 0
-278 284 0
-279 285 0
-280 283 0
-281 284 0
-282 285 0
-277 -280 284 0
-277 -281 285 0
-277 -282 286 0
-278 -280 285 0
-278 -281 286 0
-278 -282 287 0
-279 -280 286 0
-279 -281 287 0
-279 -282 288 0
-24 289 0
-23 289 0
-24 -23 290 0
-21 289 0
-24 -21 290 0
-23 -21 290 0
-24 -23 -21 291 0
-19 292 0
-18 292 0
-19 -18 293 0
-3 292 0
-19 -3 293 0
-18 -3 293 0
-19 -18 -3 294 0
-289 295 0
-290 296 0
-291 297 0
-292 295 0
-293 296 0
-294 297 0
-289 -292 296 0
-289 -293 297 0
-289 -294 298 0
-290 -292 297 0
-290 -293 298 0
-290 -294 299 0
-291 -292 298 0
-291 -293 299 0
-291 -294 300 0
-283 301 0
-285 302 0
-287 303 0
-295 301 0
-297 302 0
-299 303 0
-283 -295 302 0
-283 -297 303 0
-283 -299 304 0
-285 -295 303 0
-285 -297 304 0
-285 -299 305 0
-287 -295 304 0
-287 -297 305 0
-284 306 0
-286 307 0
-288 308 0
-296 306 0
-298 307 0
-300 308 0
-284 -296 307 0
-284 -298 308 0
-284 -300 309 0
-286 -296 308 0
-286 -298 309 0
-288 -296 309 0
-302 310 0
-306 310 0
-302 -306 311 0
-303 312 0
-307 312 0
-303 -307 313 0
-304 314 0
-308 314 0
-304 -308 315 0
-305 316 0
-309 316 0
-316 0
42 317 0
41 317 0
42 41 318 0
40 317 0
42 40 318 0
41 40 318 0
42 41 40 319 0
-317 320 0
-318 321 0
-319 322 0
-310 320 0
-312 321 0
-314 322 0
-316 323 0
-317 -310 321 0
-317 -312 322 0
-317 -314 323 0
-318 -310 322 0
-318 -312 323 0
-319 -310 323 0
-323 0
324 0
29 325 0
27 325 0
29 27 326 0
26 325 0
29 26 326 0
27 26 326 0
29 27 26 327 0
25 328 0
22 328 0
25 22 329 0
21 330 0
16 330 0
21 16 331 0
4 330 0
21 4 331 0
16 4 331 0
21 16 4 332 0
-328 333 0
-329 334 0
-330 333 0
-331 334 0
-332 335 0
-328 -330 334 0
-328 -331 335 0
-328 -332 336 0
-329 -330 335 0
-329 -331 336 0
-329 -332 337 0
-325 338 0
-326 339 0
-327 340 0
-333 338 0
-334 339 0
-335 340 0
-336 341 0
-337 342 0
-325 -333 339 0
-325 -334 340 0
-325 -335 341 0
-325 -336 342 0
-325 -337 343 0
-326 -333 340 0
-326 -334 341 0
-326 -335 342 0
-326 -336 343 0
-326 -337 344 0
-327 -333 341 0
-327 -334 342 0
-327 -335 343 0
-327 -336 344 0
-327 -337 345 0
-345 0
-46 346 0
-45 346 0
-46 -45 347 0
-44 346 0
-46 -44 347 0
-45 -44 347 0
-46 -45 -44 348 0
-346 349 0
-347 350 0
-348 351 0
-339 349 0
-341 350 0
-343 351 0
-345 352 0
-346 -339 350 0
-346 -341 351 0
-346 -343 352 0
-347 -339 351 0
-347 -341 352 0
-348 -339 352 0
-352 0
353 0
-29 354 0
-27 354 0
-29 -27 355 0
-26 354 0
-29 -26 355 0
-27 -26 355 0
-29 -27 -26 356 0
-25 357 0
-22 357 0
-25 -22 358 0
-21 359 0
-16 359 0
-21 -16 360 0
-4 359 0
-21 -4 360 0
-16 -4 360 0
-21 -16 -4 361 0
-357 362 0
-358 363 0
-359 362 0
-360 363 0
-361 364 0
-357 -359 363 0
-357 -360 364 0
-357 -361 365 0
-358 -359 364 0
-358 -360 365 0
-358 -361 366 0
-354 367 0
-355 368 0
-356 369 0
-362 367 0
-363 368 0
-364 369 0
-365 370 0
-366 371 0
-354 -362 368 0
-354 -363 369 0
-354 -364 370 0
-354 -365 371 0
-354 -366 372 0
-355 -362 369 0
-355 -363 370 0
-355 -364 371 0
-355 -365 372 0
-355 -366 373 0
-356 -362 370 0
-356 -363 371 0
-356 -364 372 0
-356 -365 373 0
-356 -366 374 0
-374 0
46 375 0
45 375 0
46 45 376 0
44 375 0
46 44 376 0
45 44 376 0
46 45 44 377 0
-375 378 0
-376 379 0
-377 380 0
-368 378 0
-370 379 0
-372 380 0
-374 381 0
-375 -368 379 0
-375 -370 380 0
-375 -372 381 0
-376 -368 380 0
-376 -370 381 0
-377 -368 381 0
-381 0
382 0
-382 383 0
29 383 0
-382 29 384 0
28 385 0
26 385 0
28 26 386 0
23 385 0
28 23 386 0
26 23 386 0
28 26 23 387 0
-383 388 0
-384 389 0
-385 388 0
-386 389 0
-387 390 0
-383 -385 389 0
-383 -386 390 0
-383 -387 391 0
-384 -385 390 0
-384 -386 391 0
-384 -387 392 0
21 393 0
19 393 0
21 19 394 0
18 393 0
21 18 394 0
19 18 394 0
21 19 18 395 0
17 396 0
16 396 0
17 16 397 0
5 396 0
17 5 397 0
16 5 397 0
17 16 5 398 0
-393 399 0
-394 400 0
-395 401 0
-396 399 0
-397 400 0
-398 401 0
-393 -396 400 0
-393 -397 401 0
-393 -398 402 0
-394 -396 401 0
-394 -397 402 0
-394 -398 403 0
-395 -396 402 0
-395 -397 403 0
-395 -398 404 0
-388 405 0
-390 406 0
-392 407 0
-399 405 0
-401 406 0
-403 407 0
-388 -399 406 0
-388 -401 407 0
-388 -403 408 0
-390 -399 407 0
-390 -401 408 0
-390 -403 409 0
-392 -399 408 0
-392 -401 409 0
-392 -403 410 0
-389 411 0
-391 412 0
-400 411 0
-402 412 0
-404 413 0
-389 -400 412 0
-389 -402 413 0
-389 -404 414 0
-391 -400 413 0
-391 -402 414 0
-391 -404 415 0
-406 416 0
-411 416 0
-406 -411 417 0
-407 418 0
-412 418 0
-407 -412 419 0
-408 420 0
-413 420 0
-408 -413 421 0
-409 422 0
-414 422 0
-409 -414 423 0
-410 424 0
-415 424 0
-410 -415 425 0
-50 426 0
-49 426 0
-50 -49 427 0
-48 426 0
-50 -48 427 0
-49 -48 427 0
-50 -49 -48 428 0
-426 429 0
-427 430 0
-428 431 0
-416 429 0
-418 430 0
-420 431 0
-422 432 0
-424 433 0
-426 -416 430 0
-426 -418 431 0
-426 -420 432 0
-426 -422 433 0
-426 -424 434 0
-427 -416 431 0
-427 -418 432 0
-427 -420 433 0
-427 -422 434 0
-428 -416 432 0
-428 -418 433 0
-428 -420 434 0
-434 0
435 0
-435 436 0
-29 436 0
-435 -29 437 0
-28 438 0
-26 438 0
-28 -26 439 0
-23 438 0
-28 -23 439 0
-26 -23 439 0
-28 -26 -23 440 0
-436 441 0
-437 442 0
-438 441 0
-439 442 0
-440 443 0
-436 -438 442 0
-436 -439 443 0
-436 -440 444 0
-437 -438 443 0
-437 -439 444 0
-437 -440 445 0
-21 446 0
-19 446 0
-21 -19 447 0
-18 446 0
-21 -18 447 0
-19 -18 447 0
-21 -19 -18 448 0
-17 449 0
-16 449 0
-17 -16 450 0
-5 449 0
-17 -5 450 0
-16 -5 450 0
-17 -16 -5 451 0
-446 452 0
-447 453 0
-448 454 0
-449 452 0
-450 453 0
-451 454 0
-446 -449 453 0
-446 -450 454 0
-446 -451 455 0
-447 -449 454 0
-447 -450 455 0
-447 -451 456 0
-448 -449 455 0
-448 -450 456 0
-448 -451 457 0
-441 458 0
-443 459 0
-445 460 0
-452 458 0
-454 459 0
-456 460 0
-441 -452 459 0
-441 -454 460 0
-441 -456 461 0
-443 -452 460 0
-443 -454 461 0
-443 -456 462 0
-445 -452 461 0
-445 -454 462 0
-442 463 0
-444 464 0
-453 463 0
-455 464 0
-457 465 0
-442 -453 464 0
-442 -455 465 0
-442 -457 466 0
-444 -453 465 0
-444 -455 466 0
-459 467 0
-463 467 0
-459 -463 468 0
-460 469 0
-464 469 0
-460 -464 470 0
-461 471 0
-465 471 0
-461 -465 472 0
-462 473 0
-466 473 0
-473 0
50 474 0
49 474 0
50 49 475 0
48 474 0
50 48 475 0
49 48 475 0
50 49 48 476 0
-474 477 0
-475 478 0
-476 479 0
-467 477 0
-469 478 0
-471 479 0
-473 480 0
-474 -467 478 0
-474 -469 479 0
-474 -471 480 0
-475 -467 479 0
-475 -469 480 0
-476 -467 480 0
-480 0
481 0
-481 482 0
28 482 0
-481 28 483 0
27 482 0
-481 27 483 0
28 27 483 0
-481 28 27 484 0
26 485 0
22 485 0
26 22 486 0
21 485 0
26 21 486 0
22 21 486 0
26 22 21 487 0
-482 488 0
-483 489 0
-484 490 0
-485 488 0
-486 489 0
-487 490 0
-482 -485 489 0
-482 -486 490 0
-482 -487 491 0
-483 -485 490 0
-483 -486 491 0
-483 -487 492 0
-484 -485 491 0
-484 -486 492 0
-484 -487 493 0
20 494 0
19 494 0
20 19 495 0
18 494 0
20 18 495 0
19 18 495 0
20 19 18 496 0
17 497 0
16 497 0
17 16 498 0
6 497 0
17 6 498 0
16 6 498 0
17 16 6 499 0
-494 500 0
-495 501 0
-496 502 0
-497 500 0
-498 501 0
-499 502 0
-494 -497 501 0
-494 -498 502 0
-494 -499 503 0
-495 -497 502 0
-495 -498 503 0
-495 -499 504 0
-496 -497 503 0
-496 -498 504 0
-496 -499 505 0
-488 506 0
-490 507 0
-492 508 0
-500 506 0
-502 507 0
-504 508 0
-488 -500 507 0
-488 -502 508 0
-488 -504 509 0
-490 -500 508 0
-490 -502 509 0
-490 -504 510 0
-492 -500 509 0
-492 -502 510 0
-492 -504 511 0
-489 512 0
-491 513 0
-493 514 0
-501 512 0
-503 513 0
-505 514 0
-489 -501 513 0
-489 -503 514 0
-489 -505 515 0
-491 -501 514 0
-491 -503 515 0
-491 -505 516 0
-493 -501 515 0
-493 -503 516 0
-493 -505 517 0
-507 518 0
-512 518 0
-507 -512 519 0
-508 520 0
-513 520 0
-508 -513 521 0
-509 522 0
-514 522 0
-509 -514 523 0
-510 524 0
-515 524 0
-510 -515 525 0
-511 526 0
-516 526 0
-511 -516 527 0
-517 0
-54 528 0
-53 528 0
-54 -53 529 0
-52 528 0
-54 -52 529 0
-53 -52 529 0
-54 -53 -52 530 0
-528 531 0
-529 532 0
-530 533 0
-518 531 0
-520 532 0
-522 533 0
-524 534 0
-526 535 0
-517 536 0
-528 -518 532 0
-528 -520 533 0
-528 -522 534 0
-528 -524 535 0
-528 -526 536 0
-529 -518 533 0
-529 -520 534 0
-529 -522 535 0
-529 -524 536 0
-530 -518 534 0
-530 -520 535 0
-530 -522 536 0
-536 0
537 0
-28 538 0
-27 538 0
-28 -27 539 0
-26 540 0
-22 540 0
-26 -22 541 0
-21 540 0
-26 -21 541 0
-22 -21 541 0
-26 -22 -21 542 0
-538 543 0
-539 544 0
-540 543 0
-541 544 0
-542 545 0
-538 -540 544 0
-538 -541 545 0
-538 -542 546 0
-539 -540 545 0
-539 -541 546 0
-539 -542 547 0
-20 548 0
-19 548 0
-20 -19 549 0
-18 548 0
-20 -18 549 0
-19 -18 549 0
-20 -19 -18 550 0
-17 551 0
-16 551 0
-17 -16 552 0
-6 551 0
-17 -6 552 0
-16 -6 552 0
-17 -16 -6 553 0
-548 554 0
-549 555 0
-550 556 0
-551 554 0
-552 555 0
-553 556 0
-548 -551 555 0
-548 -552 556 0
-548 -553 557 0
-549 -551 556 0
-549 -552 557 0
-549 -553 558 0
-550 -551 557 0
-550 -552 558 0
-550 -553 559 0
-543 560 0
-545 561 0
-547 562 0
-554 560 0
-556 561 0
-558 562 0
-543 -554 561 0
-543 -556 562 0
-543 -558 563 0
-545 -554 562 0
-545 -556 563 0
-545 -558 564 0
-547 -554 563 0
-547 -556 564 0
-544 565 0
-546 566 0
-555 565 0
-557 566 0
-559 567 0
-544 -555 566 0
-544 -557 567 0
-544 -559 568 0
-546 -555 567 0
-546 -557 568 0
-561 569 0
-565 569 0
-561 -565 570 0
-562 571 0
-566 571 0
-562 -566 572 0
-563 573 0
-567 573 0
-563 -567 574 0
-564 575 0
-568 575 0
-575 0
54 576 0
53 576 0
54 53 577 0
52 576 0
54 52 577 0
53 52 577 0
54 53 52 578 0
-576 579 0
-577 580 0
-578 581 0
-569 579 0
-571 580 0
-573 581 0
-575 582 0
-576 -569 580 0
-576 -571 581 0
-576 -573 582 0
-577 -569 581 0
-577 -571 582 0
-578 -569 582 0
-582 0
583 0
-583 584 0
29 584 0
-583 29 585 0
27 584 0
-583 27 585 0
29 27 585 0
-583 29 27 586 0
24 587 0
22 587 0
24 22 588 0
21 587 0
24 21 588 0
22 21 588 0
24 22 21 589 0
20 590 0
16 590 0
20 16 591 0
7 590 0
20 7 591 0
16 7 591 0
20 16 7 592 0
-587 593 0
-588 594 0
-589 595 0
-590 593 0
-591 594 0
-592 595 0
-587 -590 594 0
-587 -591 595 0
-587 -592 596 0
-588 -590 595 0
-588 -591 596 0
-588 -592 597 0
-589 -590 596 0
-589 -591 597 0
-589 -592 598 0
-584 599 0
-585 600 0
-586 601 0
-593 599 0
-594 600 0
-595 601 0
-596 602 0
-597 603 0
-598 604 0
-584 -593 600 0
-584 -594 601 0
-584 -595 602 0
-584 -596 603 0
-584 -597 604 0
-584 -598 605 0
-585 -593 601 0
-585 -594 602 0
-585 -595 603 0
-585 -596 604 0
-585 -597 605 0
-585 -598 606 0
-586 -593 602 0
-586 -594 603 0
-586 -595 604 0
-586 -596 605 0
-586 -597 606 0
-586 -598 607 0
-58 608 0
-57 608 0
-58 -57 609 0
-56 608 0
-58 -56 609 0
-57 -56 609 0
-58 -57 -56 610 0
-608 611 0
-609 612 0
-610 613 0
-600 611 0
-602 612 0
-604 613 0
-606 614 0
-608 -600 612 0
-608 -602 613 0
-608 -604 614 0
-608 -606 615 0
-609 -600 613 0
-609 -602 614 0
-609 -604 615 0
-610 -600 614 0
-610 -602 615 0
-615 0
616 0
-616 617 0
-29 617 0
-616 -29 618 0
-27 617 0
-616 -27 618 0
-29 -27 618 0
-616 -29 -27 619 0
-24 620 0
-22 620 0
-24 -22 621 0
-21 620 0
-24 -21 621 0
-22 -21 621 0
-24 -22 -21 622 0
-20 623 0
-16 623 0
-20 -16 624 0
-7 623 0
-20 -7 624 0
-16 -7 624 0
-20 -16 -7 625 0
-620 626 0
-621 627 0
-622 628 0
-623 626 0
-624 627 0
-625 628 0
-620 -623 627 0
-620 -624 628 0
-620 -625 629 0
-621 -623 628 0
-621 -624 629 0
-621 -625 630 0
-622 -623 629 0
-622 -624 630 0
-622 -625 631 0
-617 632 0
-618 633 0
-619 634 0
-626 632 0
-627 633 0
-628 634 0
-629 635 0
-630 636 0
-631 637 0
-617 -626 633 0
-617 -627 634 0
-617 -628 635 0
-617 -629 636 0
-617 -630 637 0
-617 -631 638 0
-618 -626 634 0
-618 -627 635 0
-618 -628 636 0
-618 -629 637 0
-618 -630 638 0
-618 -631 639 0
-619 -626 635 0
-619 -627 636 0
-619 -628 637 0
-619 -629 638 0
-619 -630 639 0
-639 0
58 640 0
57 640 0
58 57 641 0
56 640 0
58 56 641 0
57 56 641 0
58 57 56 642 0
-640 643 0
-641 644 0
-642 645 0
-633 643 0
-635 644 0
-637 645 0
-639 646 0
-640 -633 644 0
-640 -635 645 0
-640 -637 646 0
-641 -633 645 0
-641 -635 646 0
-642 -633 646 0
-646 0
647 0
-647 648 0
30 648 0
-647 30 649 0
27 648 0
-647 27 649 0
30 27 649 0
-647 30 27 650 0
24 651 0
19 651 0
24 19 652 0
18 651 0
24 18 652 0
19 18 652 0
24 19 18 653 0
17 654 0
16 654 0
17 16 655 0
8 654 0
17 8 655 0
16 8 655 0
17 16 8 656 0
-651 657 0
-652 658 0
-653 659 0
-654 657 0
-655 658 0
-656 659 0
-651 -654 658 0
-651 -655 659 0
-651 -656 660 0
-652 -654 659 0
-652 -655 660 0
-652 -656 661 0
-653 -654 660 0
-653 -655 661 0
-653 -656 662 0
-648 663 0
-649 664 0
-650 665 0
-657 663 0
-658 664 0
-659 665 0
-660 666 0
-661 667 0
-662 668 0
-648 -657 664 0
-648 -658 665 0
-648 -659 666 0
-648 -660 667 0
-648 -661 668 0
-648 -662 669 0
-649 -657 665 0
-649 -658 666 0
-649 -659 667 0
-649 -660 668 0
-649 -661 669 0
-649 -662 670 0
-650 -657 666 0
-650 -658 667 0
-650 -659 668 0
-650 -660 669 0
-650 -661 670 0
-650 -662 671 0
-62 672 0
-61 672 0
-62 -61 673 0
-60 672 0
-62 -60 673 0
-61 -60 673 0
-62 -61 -60 674 0
-672 675 0
-673 676 0
-674 677 0
-664 675 0
-666 676 0
-668 677 0
-670 678 0
-672 -664 676 0
-672 -666 677 0
-672 -668 678 0
-672 -670 679 0
-673 -664 677 0
-673 -666 678 0
-673 -668 679 0
-674 -664 678 0
-674 -666 679 0
-679 0
680 0
-680 681 0
-30 681 0
-680 -30 682 0
-27 681 0
-680 -27 682 0
-30 -27 682 0
-680 -30 -27 683 0
-24 684 0
-19 684 0
-24 -19 685 0
-18 684 0
-24 -18 685 0
-19 -18 685 0
-24 -19 -18 686 0
-17 687 0
-16 687 0
-17 -16 688 0
-8 687 0
-17 -8 688 0
-16 -8 688 0
-17 -16 -8 689 0
-684 690 0
-685 691 0
-686 692 0
-687 690 0
-688 691 0
-689 692 0
-684 -687 691 0
-684 -688 692 0
-684 -689 693 0
-685 -687 692 0
-685 -688 693 0
-685 -689 694 0
-686 -687 693 0
-686 -688 694 0
-686 -689 695 0
-681 696 0
-682 697 0
-683 698 0
-690 696 0
-691 697 0
-692 698 0
-693 699 0
-694 700 0
-695 701 0
-681 -690 697 0
-681 -691 698 0
-681 -692 699 0
-681 -693 700 0
-681 -694 701 0
-681 -695 702 0
-682 -690 698 0
-682 -691 699 0
-682 -692 700 0
-682 -693 701 0
-682 -694 702 0
-682 -695 703 0
-683 -690 699 0
-683 -691 700 0
-683 -692 701 0
-683 -693 702 0
-683 -694 703 0
-703 0
62 704 0
61 704 0
62 61 705 0
60 704 0
62 60 705 0
61 60 705 0
62 61 60 706 0
-704 707 0
-705 708 0
-706 709 0
-697 707 0
-699 708 0
-701 709 0
-703 710 0
-704 -697 708 0
-704 -699 709 0
-704 -701 710 0
-705 -697 709 0
-705 -699 710 0
-706 -697 710 0
-710 0
711 0
30 712 0
28 712 0
30 28 713 0
26 712 0
30 26 713 0
28 26 713 0
30 28 26 714 0
24 715 0
21 715 0
24 21 716 0
17 717 0
16 717 0
17 16 718 0
9 717 0
17 9 718 0
16 9 718 0
17 16 9 719 0
-715 720 0
-716 721 0
-717 720 0
-718 721 0
-719 722 0
-715 -717 721 0
-715 -718 722 0
-715 -719 723 0
-716 -717 722 0
-716 -718 723 0
-716 -719 724 0
-712 725 0
-713 726 0
-714 727 0
-720 725 0
-721 726 0
-722 727 0
-723 728 0
-724 729 0
-712 -720 726 0
-712 -721 727 0
-712 -722 728 0
-712 -723 729 0
-712 -724 730 0
-713 -720 727 0
-713 -721 728 0
-713 -722 729 0
-713 -723 730 0
-713 -724 731 0
-714 -720 728 0
-714 -721 729 0
-714 -722 730 0
-714 -723 731 0
-714 -724 732 0
-732 0
-66 733 0
-65 733 0
-66 -65 734 0
-64 733 0
-66 -64 734 0
-65 -64 734 0
-66 -65 -64 735 0
-733 736 0
-734 737 0
-735 738 0
-726 736 0
-728 737 0
-730 738 0
-732 739 0
-733 -726 737 0
-733 -728 738 0
-733 -730 739 0
-734 -726 738 0
-734 -728 739 0
-735 -726 739 0
-739 0
740 0
-30 741 0
-28 741 0
-30 -28 742 0
-26 741 0
-30 -26 742 0
-28 -26 742 0
-30 -28 -26 743 0
-24 744 0
-21 744 0
-24 -21 745 0
-17 746 0
-16 746 0
-17 -16 747 0
-9 746 0
-17 -9 747 0
-16 -9 747 0
-17 -16 -9 748 0
-744 749 0
-745 750 0
-746 749 0
-747 750 0
-748 751 0
-744 -746 750 0
-744 -747 751 0
-744 -748 752 0
-745 -746 751 0
-745 -747 752 0
-745 -748 753 0
-741 754 0
-742 755 0
-743 756 0
-749 754 0
-750 755 0
-751 756 0
-752 757 0
-753 758 0
-741 -749 755 0
-741 -750 756 0
-741 -751 757 0
-741 -752 758 0
-741 -753 759 0
-742 -749 756 0
-742 -750 757 0
-742 -751 758 0
-742 -752 759 0
-742 -753 760 0
-743 -749 757 0
-743 -750 758 0
-743 -751 759 0
-743 -752 760 0
-743 -753 761 0
-761 0
66 762 0
65 762 0
66 65 763 0
64 762 0
66 64 763 0
65 64 763 0
66 65 64 764 0
-762 765 0
-763 766 0
-764 767 0
-755 765 0
-757 766 0
-759 767 0
-761 768 0
-762 -755 766 0
-762 -757 767 0
-762 -759 768 0
-763 -755 767 0
-763 -757 768 0
-764 -755 768 0
-768 0
769 0
-769 770 0
25 770 0
-769 25 771 0
19 772 0
17 772 0
19 17 773 0
10 772 0
19 10 773 0
17 10 773 0
19 17 10 774 0
-770 775 0
-771 776 0
-772 775 0
-773 776 0
-774 777 0
-770 -772 776 0
-770 -773 777 0
-770 -774 778 0
-771 -772 777 0
-771 -773 778 0
-771 -774 779 0
-69 780 0
-68 780 0
-69 -68 781 0
-780 782 0
-781 783 0
-776 782 0
-778 783 0
-780 -776 783 0
-780 -778 784 0
-781 -776 784 0
-784 0
785 0
-785 786 0
-25 786 0
-785 -25 787 0
-19 788 0
-17 788 0
-19 -17 789 0
-10 788 0
-19 -10 789 0
-17 -10 789 0
-19 -17 -10 790 0
-786 791 0
-787 792 0
-788 791 0
-789 792 0
-790 793 0
-786 -788 792 0
-786 -789 793 0
-786 -790 794 0
-787 -788 793 0
-787 -789 794 0
-787 -790 795 0
69 796 0
68 796 0
69 68 797 0
-796 798 0
-797 799 0
-792 798 0
-794 799 0
-796 -792 799 0
-796 -794 800 0
-797 -792 800 0
-800 0
801 0
-801 802 0
28 802 0
-801 28 803 0
26 802 0
-801 26 803 0
28 26 803 0
-801 28 26 804 0
21 805 0
19 805 0
21 19 806 0
11 805 0
21 11 806 0
19 11 806 0
21 19 11 807 0
25 808 0
-805 808 0
-806 809 0
-807 810 0
25 -805 809 0
25 -806 810 0
25 -807 811 0
-802 812 0
-803 813 0
-804 814 0
-808 812 0
-809 813 0
-810 814 0
-811 815 0
-802 -808 813 0
-802 -809 814 0
-802 -810 815 0
-802 -811 816 0
-803 -808 814 0
-803 -809 815 0
-803 -810 816 0
-803 -811 817 0
-804 -808 815 0
-804 -809 816 0
-804 -810 817 0
-804 -811 818 0
-73 819 0
-72 819 0
-73 -72 820 0
-71 819 0
-73 -71 820 0
-72 -71 820 0
-73 -72 -71 821 0
-819 822 0
-820 823 0
-821 824 0
-813 822 0
-815 823 0
-817 824 0
-819 -813 823 0
-819 -815 824 0
-819 -817 825 0
-820 -813 824 0
-820 -815 825 0
-821 -813 825 0
-825 0
826 0
-826 827 0
-28 827 0
-826 -28 828 0
-26 827 0
-826 -26 828 0
-28 -26 828 0
-826 -28 -26 829 0
-21 830 0
-19 830 0
-21 -19 831 0
-11 830 0
-21 -11 831 0
-19 -11 831 0
-21 -19 -11 832 0
-25 833 0
-830 833 0
-831 834 0
-832 835 0
-25 -830 834 0
-25 -831 835 0
-25 -832 836 0
-827 837 0
-828 838 0
-829 839 0
-833 837 0
-834 838 0
-835 839 0
-836 840 0
-827 -833 838 0
-827 -834 839 0
-827 -835 840 0
-827 -836 841 0
-828 -833 839 0
-828 -834 840 0
-828 -835 841 0
-828 -836 842 0
-829 -833 840 0
-829 -834 841 0
-829 -835 842 0
-829 -836 843 0
73 844 0
72 844 0
73 72 845 0
71 844 0
73 71 845 0
72 71 845 0
73 72 71 846 0
-844 847 0
-845 848 0
-846 849 0
-838 847 0
-840 848 0
-842 849 0
-844 -838 848 0
-844 -840 849 0
-844 -842 850 0
-845 -838 849 0
-845 -840 850 0
-846 -838 850 0
-850 0
851 0
30 852 0
29 852 0
30 29 853 0
27 852 0
30 27 853 0
29 27 853 0
30 29 27 854 0
24 855 0
23 855 0
24 23 856 0
21 855 0
24 21 856 0
23 21 856 0
24 23 21 857 0
17 858 0
16 858 0
17 16 859 0
12 858 0
17 12 859 0
16 12 859 0
17 16 12 860 0
-855 861 0
-856 862 0
-857 863 0
-858 861 0
-859 862 0
-860 863 0
-855 -858 862 0
-855 -859 863 0
-855 -860 864 0
-856 -858 863 0
-856 -859 864 0
-856 -860 865 0
-857 -858 864 0
-857 -859 865 0
-857 -860 866 0
-852 867 0
-853 868 0
-854 869 0
-861 867 0
-862 868 0
-863 869 0
-864 870 0
-865 871 0
-866 872 0
-852 -861 868 0
-852 -862 869 0
-852 -863 870 0
-852 -864 871 0
-852 -865 872 0
-852 -866 873 0
-853 -861 869 0
-853 -862 870 0
-853 -863 871 0
-853 -864 872 0
-853 -865 873 0
-853 -866 874 0
-854 -861 870 0
-854 -862 871 0
-854 -863 872 0
-854 -864 873 0
-854 -865 874 0
-854 -866 875 0
-77 876 0
-76 876 0
-77 -76 877 0
-75 876 0
-77 -75 877 0
-76 -75 877 0
-77 -76 -75 878 0
-876 879 0
-877 880 0
-878 881 0
-868 879 0
-870 880 0
-872 881 0
-874 882 0
-876 -868 880 0
-876 -870 881 0
-876 -872 882 0
-876 -874 883 0
-877 -868 881 0
-877 -870 882 0
-877 -872 883 0
-878 -868 882 0
-878 -870 883 0
-883 0
884 0
-30 885 0
-29 885 0
-30 -29 886 0
-27 885 0
-30 -27 886 0
-29 -27 886 0
-30 -29 -27 887 0
-884 888 0
-885 888 0
-886 889 0
-887 890 0
-884 -885 889 0
-884 -886 890 0
-884 -887 891 0
-24 892 0
-23 892 0
-24 -23 893 0
-21 892 0
-24 -21 893 0
-23 -21 893 0
-24 -23 -21 894 0
-17 895 0
-16 895 0
-17 -16 896 0
-12 895 0
-17 -12 896 0
-16 -12 896 0
-17 -16 -12 897 0
-892 898 0
-893 899 0
-894 900 0
-895 898 0
-896 899 0
-897 900 0
-892 -895 899 0
-892 -896 900 0
-892 -897 901 0
-893 -895 900 0
-893 -896 901 0
-893 -897 902 0
-894 -895 901 0
-894 -896 902 0
-894 -897 903 0
-888 904 0
-889 905 0
-890 906 0
-891 907 0
-898 904 0
-899 905 0
-900 906 0
-901 907 0
-902 908 0
-903 909 0
-888 -898 905 0
-888 -899 906 0
-888 -900 907 0
-888 -901 908 0
-888 -902 909 0
-888 -903 910 0
-889 -898 906 0
-889 -899 907 0
-889 -900 908 0
-889 -901 909 0
-889 -902 910 0
-889 -903 911 0
-890 -898 907 0
-890 -899 908 0
-890 -900 909 0
-890 -901 910 0
-890 -902 911 0
-891 -898 908 0
-891 -899 909 0
-891 -900 910 0
-891 -901 911 0
-911 0
77 912 0
76 912 0
77 76 913 0
75 912 0
77 75 913 0
76 75 913 0
77 76 75 914 0
-912 915 0
-913 916 0
-914 917 0
-905 915 0
-907 916 0
-909 917 0
-911 918 0
-912 -905 916 0
-912 -907 917 0
-912 -909 918 0
-913 -905 917 0
-913 -907 918 0
-914 -905 918 0
-918 0
919 0
-919 920 0
30 920 0
-919 30 921 0
29 920 0
-919 29 921 0
30 29 921 0
-919 30 29 922 0
28 923 0
26 923 0
28 26 924 0
25 923 0
28 25 924 0
26 25 924 0
28 26 25 925 0
19 926 0
17 926 0
19 17 927 0
13 926 0
19 13 927 0
17 13 927 0
19 17 13 928 0
-923 929 0
-924 930 0
-925 931 0
-926 929 0
-927 930 0
-928 931 0
-923 -926 930 0
-923 -927 931 0
-923 -928 932 0
-924 -926 931 0
-924 -927 932 0
-924 -928 933 0
-925 -926 932 0
-925 -927 933 0
-925 -928 934 0
-920 935 0
-921 936 0
-922 937 0
-929 935 0
-930 936 0
-931 937 0
-932 938 0
-933 939 0
-934 940 0
-920 -929 936 0
-920 -930 937 0
-920 -931 938 0
-920 -932 939 0
-920 -933 940 0
-920 -934 941 0
-921 -929 937 0
-921 -930 938 0
-921 -931 939 0
-921 -932 940 0
-921 -933 941 0
-921 -934 942 0
-922 -929 938 0
-922 -930 939 0
-922 -931 940 0
-922 -932 941 0
-922 -933 942 0
-922 -934 943 0
-81 944 0
-80 944 0
-81 -80 945 0
-79 944 0
-81 -79 945 0
-80 -79 945 0
-81 -80 -79 946 0
-944 947 0
-945 948 0
-946 949 0
-936 947 0
-938 948 0
-940 949 0
-942 950 0
-944 -936 948 0
-944 -938 949 0
-944 -940 950 0
-944 -942 951 0
-945 -936 949 0
-945 -938 950 0
-945 -940 951 0
-946 -936 950 0
-946 -938 951 0
-951 0
952 0
-952 953 0
-30 953 0
-952 -30 954 0
-29 953 0
-952 -29 954 0
-30 -29 954 0
-952 -30 -29 955 0
-28 956 0
-26 956 0
-28 -26 957 0
-25 956 0
-28 -25 957 0
-26 -25 957 0
-28 -26 -25 958 0
-19 959 0
-17 959 0
-19 -17 960 0
-13 959 0
-19 -13 960 0
-17 -13 960 0
-19 -17 -13 961 0
-956 962 0
-957 963 0
-958 964 0
-959 962 0
-960 963 0
-961 964 0
-956 -959 963 0
-956 -960 964 0
-956 -961 965 0
-957 -959 964 0
-957 -960 965 0
-957 -961 966 0
-958 -959 965 0
-958 -960 966 0
-958 -961 967 0
-953 968 0
-954 969 0
-955 970 0
-962 968 0
-963 969 0
-964 970 0
-965 971 0
-966 972 0
-967 973 0
-953 -962 969 0
-953 -963 970 0
-953 -964 971 0
-953 -965 972 0
-953 -966 973 0
-953 -967 974 0
-954 -962 970 0
-954 -963 971 0
-954 -964 972 0
-954 -965 973 0
-954 -966 974 0
-954 -967 975 0
-955 -962 971 0
-955 -963 972 0
-955 -964 973 0
-955 -965 974 0
-955 -966 975 0
-975 0
81 976 0
80 976 0
81 80 977 0
79 976 0
81 79 977 0
80 79 977 0
81 80 79 978 0
-976 979 0
-977 980 0
-978 981 0
-969 979 0
-971 980 0
-973 981 0
-975 982 0
-976 -969 980 0
-976 -971 981 0
-976 -973 982 0
-977 -969 981 0
-977 -971 982 0
-978 -969 982 0
-982 0
983 0
-29 984 0
-28 984 0
-29 -28 985 0
-20 984 0
-29 -20 985 0
-28 -20 985 0
-29 -28 -20 986 0
-18 987 0
-17 987 0
-18 -17 988 0
-14 987 0
-18 -14 988 0
-17 -14 988 0
-18 -17 -14 989 0
-19 990 0
-987 990 0
-988 991 0
-989 992 0
-19 -987 991 0
-19 -988 992 0
-19 -989 993 0
-984 994 0
-985 995 0
-986 996 0
-990 994 0
-991 995 0
-992 996 0
-993 997 0
-984 -990 995 0
-984 -991 996 0
-984 -992 997 0
-984 -993 998 0
-985 -990 996 0
-985 -991 997 0
-985 -992 998 0
-985 -993 999 0
-986 -990 997 0
-986 -991 998 0
-986 -992 999 0
-986 -993 1000 0
85 1001 0
84 1001 0
85 84 1002 0
83 1001 0
85 83 1002 0
84 83 1002 0
85 84 83 1003 0
-1001 1004 0
-1002 1005 0
-1003 1006 0
-995 1004 0
-997 1005 0
-999 1006 0
-1001 -995 1005 0
-1001 -997 1006 0
-1001 -999 1007 0
-1002 -995 1006 0
-1002 -997 1007 0
-1003 -995 1007 0
-1007 0
1008 0
-1008 1009 0
29 1009 0
-1008 29 1010 0
28 1009 0
-1008 28 1010 0
29 28 1010 0
-1008 29 28 1011 0
20 1012 0
19 1012 0
20 19 1013 0
18 1014 0
17 1014 0
18 17 1015 0
14 1014 0
18 14 1015 0
17 14 1015 0
18 17 14 1016 0
-1012 1017 0
-1013 1018 0
-1014 1017 0
-1015 1018 0
-1016 1019 0
-1012 -1014 1018 0
-1012 -1015 1019 0
-1012 -1016 1020 0
-1013 -1014 1019 0
-1013 -1015 1020 0
-1013 -1016 1021 0
-1009 1022 0
-1010 1023 0
-1011 1024 0
-1017 1022 0
-1018 1023 0
-1019 1024 0
-1020 1025 0
-1021 1026 0
-1009 -1017 1023 0
-1009 -1018 1024 0
-1009 -1019 1025 0
-1009 -1020 1026 0
-1009 -1021 1027 0
-1010 -1017 1024 0
-1010 -1018 1025 0
-1010 -1019 1026 0
-1010 -1020 1027 0
-1010 -1021 1028 0
-1011 -1017 1025 0
-1011 -1018 1026 0
-1011 -1019 1027 0
-1011 -1020 1028 0
-1011 -1021 1029 0
-1029 0
-85 1030 0
-84 1030 0
-85 -84 1031 0
-83 1030 0
-85 -83 1031 0
-84 -83 1031 0
-85 -84 -83 1032 0
-1030 1033 0
-1031 1034 0
-1032 1035 0
-1023 1033 0
-1025 1034 0
-1027 1035 0
-1029 1036 0
-1030 -1023 1034 0
-1030 -1025 1035 0
-1030 -1027 1036 0
-1031 -1023 1035 0
-1031 -1025 1036 0
-1032 -1023 1036 0
-1036 0
1037 0
20 1038 0
16 1038 0
20 16 1039 0
15 1038 0
20 15 1039 0
16 15 1039 0
20 16 15 1040 0
24 1041 0
-1038 1041 0
-1039 1042 0
-1040 1043 0
24 -1038 1042 0
24 -1039 1043 0
24 -1040 1044 0
-1044 0
-87 1045 0
-1042 1045 0
-1044 1046 0
-87 -1042 1046 0
-1046 0
1047 0
-20 1048 0
-16 1048 0
-20 -16 1049 0
-15 1048 0
-20 -15 1049 0
-16 -15 1049 0
-20 -16 -15 1050 0
-24 1051 0
-1048 1051 0
-1049 1052 0
-1050 1053 0
-24 -1048 1052 0
-24 -1049 1053 0
-24 -1050 1054 0
-1054 0
87 1055 0
-1052 1055 0
-1054 1056 0
87 -1052 1056 0
-1056 0
-33 32 0
-34 33 0
-37 36 0
-38 37 0
-41 40 0
-42 41 0
-45 44 0
-46 45 0
-49 48 0
-50 49 0
-53 52 0
-54 53 0
-57 56 0
-58 57 0
-61 60 0
-62 61 0
-65 64 0
-66 65 0
-69 68 0
-72 71 0
-73 72 0
-76 75 0
-77 76 0
-80 79 0
-81 80 0
-84 83 0
-85 84 0
-1057 0
-1 1058 0
-2 1058 0
-1 -2 1059 0
-3 1060 0
-4 1060 0
-3 -4 1061 0
-1058 1062 0
-1060 1062 0
-1058 -1060 1063 0
-1059 1064 0
-1061 1064 0
-1059 -1061 1065 0
-1063 1066 0
-1064 1066 0
-1063 -1064 1067 0
-5 1068 0
-6 1068 0
-5 -6 1069 0
-7 1070 0
-8 1070 0
-7 -8 1071 0
-1068 1072 0
-1070 1072 0
-1068 -1070 1073 0
-1069 1074 0
-1071 1074 0
-1069 -1071 1075 0
-1073 1076 0
-1074 1076 0
-1073 -1074 1077 0
-1062 1078 0
-1072 1078 0
-1062 -1072 1079 0
-1067 1080 0
-1077 1080 0
-1067 -1077 1081 0
-1079 1082 0
-1080 1082 0
-1079 -1080 1083 0
-1066 1084 0
-1076 1084 0
-1066 -1076 1085 0
-1065 1086 0
-1075 1086 0
-1065 -1075 1087 0
-1085 1088 0
-1086 1088 0
-1085 -1086 1089 0
-1082 1090 0
-1084 1090 0
-1082 -1084 1091 0
-1083 1092 0
-1088 1092 0
-1083 -1088 1093 0
-1081 1094 0
-1089 1094 0
-1081 -1089 1095 0
-9 1096 0
-10 1096 0
-9 -10 1097 0
-11 1098 0
-12 1098 0
-11 -12 1099 0
-1096 1100 0
-1098 1100 0
-1096 -1098 1101 0
-1097 1102 0
-1099 1102 0
-1097 -1099 1103 0
-1101 1104 0
-1102 1104 0
-1101 -1102 1105 0
-13 1106 0
-14 1106 0
-13 -14 1107 0
-15 1108 0
-16 1108 0
-15 -16 1109 0
-1106 1110 0
-1108 1110 0
-1106 -1108 1111 0
-1107 1112 0
-1109 1112 0
-1107 -1109 1113 0
-1111 1114 0
-1112 1114 0
-1111 -1112 1115 0
-1100 1116 0
-1110 1116 0
-1100 -1110 1117 0
-1105 1118 0
-1115 1118 0
-1105 -1115 1119 0
-1117 1120 0
-1118 1120 0
-1117 -1118 1121 0
-1104 1122 0
-1114 1122 0
-1104 -1114 1123 0
-1103 1124 0
-1113 1124 0
-1103 -1113 1125 0
-1123 1126 0
-1124 1126 0
-1123 -1124 1127 0
-1120 1128 0
-1122 1128 0
-1120 -1122 1129 0
-1121 1130 0
-1126 1130 0
-1121 -1126 1131 0
-1119 1132 0
-1127 1132 0
-1119 -1127 1133 0
-17 1134 0
-18 1134 0
-17 -18 1135 0
-19 1136 0
-20 1136 0
-19 -20 1137 0
-1134 1138 0
-1136 1138 0
-1134 -1136 1139 0
-1135 1140 0
-1137 1140 0
-1135 -1137 1141 0
-1139 1142 0
-1140 1142 0
-1139 -1140 1143 0
-21 1144 0
-22 1144 0
-21 -22 1145 0
-23 1146 0
-24 1146 0
-23 -24 1147 0
-1144 1148 0
-1146 1148 0
-1144 -1146 1149 0
-1145 1150 0
-1147 1150 0
-1145 -1147 1151 0
-1149 1152 0
-1150 1152 0
-1149 -1150 1153 0
-1138 1154 0
-1148 1154 0
-1138 -1148 1155 0
-1143 1156 0
-1153 1156 0
-1143 -1153 1157 0
-1155 1158 0
-1156 1158 0
-1155 -1156 1159 0
-1142 1160 0
-1152 1160 0
-1142 -1152 1161 0
-1141 1162 0
-1151 1162 0
-1141 -1151 1163 0
-1161 1164 0
-1162 1164 0
-1161 -1162 1165 0
-1158 1166 0
-1160 1166 0
-1158 -1160 1167 0
-1159 1168 0
-1164 1168 0
-1159 -1164 1169 0
-1157 1170 0
-1165 1170 0
-1157 -1165 1171 0
-25 1172 0
-26 1172 0
-25 -26 1173 0
-27 1174 0
-28 1174 0
-27 -28 1175 0
-1172 1176 0
-1174 1176 0
-1172 -1174 1177 0
-1173 1178 0
-1175 1178 0
-1173 -1175 1179 0
-1177 1180 0
-1178 1180 0
-1177 -1178 1181 0
-29 1182 0
-30 1182 0
-29 -30 1183 0
-1057 1184 0
-1057 1184 0
-1057 -1057 1185 0
-1182 1186 0
-1184 1186 0
-1182 -1184 1187 0
-1183 1188 0
-1185 1188 0
-1183 -1185 1189 0
-1187 1190 0
-1188 1190 0
-1187 -1188 1191 0
-1176 1192 0
-1186 1192 0
-1176 -1186 1193 0
-1181 1194 0
-1191 1194 0
-1181 -1191 1195 0
-1193 1196 0
-1194 1196 0
-1193 -1194 1197 0
-1180 1198 0
-1190 1198 0
-1180 -1190 1199 0
-1179 1200 0
-1189 1200 0
-1179 -1189 1201 0
-1199 1202 0
-1200 1202 0
-1199 -1200 1203 0
-1196 1204 0
-1198 1204 0
-1196 -1198 1205 0
-1197 1206 0
-1202 1206 0
-1197 -1202 1207 0
-1195 1208 0
-1203 1208 0
-1195 -1203 1209 0
-1154 1210 0
-1192 1210 0
-1154 -1192 1211 0
-1169 1212 0
-1207 1212 0
-1169 -1207 1213 0
-1211 1214 0
-1212 1214 0
-1211 -1212 1215 0
-1167 1216 0
-1205 1216 0
-1167 -1205 1217 0
-1171 1218 0
-1209 1218 0
-1171 -1209 1219 0
-1217 1220 0
-1218 1220 0
-1217 -1218 1221 0
-1214 1222 0
-1216 1222 0
-1214 -1216 1223 0
-1215 1224 0
-1220 1224 0
-1215 -1220 1225 0
-1166 1226 0
-1204 1226 0
-1166 -1204 1227 0
-1170 1228 0
-1208 1228 0
-1170 -1208 1229 0
-1227 1230 0
-1228 1230 0
-1227 -1228 1231 0
-1168 1232 0
-1206 1232 0
-1168 -1206 1233 0
-1163 1234 0
-1201 1234 0
-1163 -1201 1235 0
-1233 1236 0
-1234 1236 0
-1233 -1234 1237 0
-1230 1238 0
-1232 1238 0
-1230 -1232 1239 0
-1231 1240 0
-1236 1240 0
-1231 -1236 1241 0
-1222 1242 0
-1226 1242 0
-1222 -1226 1243 0
-1223 1244 0
-1238 1244 0
-1223 -1238 1245 0
-1224 1246 0
-1239 1246 0
-1224 -1239 1247 0
-1225 1248 0
-1240 1248 0
-1225 -1240 1249 0
-1116 1250 0
-1210 1250 0
-1116 -1210 1251 0
-1131 1252 0
-1245 1252 0
-1131 -1245 1253 0
-1251 1254 0
-1252 1254 0
-1251 -1252 1255 0
-1129 1256 0
-1243 1256 0
-1129 -1243 1257 0
-1133 1258 0
-1247 1258 0
-1133 -1247 1259 0
-1257 1260 0
-1258 1260 0
-1257 -1258 1261 0
-1254 1262 0
-1256 1262 0
-1254 -1256 1263 0
-1255 1264 0
-1260 1264 0
-1255 -1260 1265 0
-1128 1266 0
-1242 1266 0
-1128 -1242 1267 0
-1132 1268 0
-1246 1268 0
-1132 -1246 1269 0
-1267 1270 0
-1268 1270 0
-1267 -1268 1271 0
-1130 1272 0
-1244 1272 0
-1130 -1244 1273 0
-1125 1274 0
-1248 1274 0
-1125 -1248 1275 0
-1273 1276 0
-1274 1276 0
-1273 -1274 1277 0
-1270 1278 0
-1272 1278 0
-1270 -1272 1279 0
-1271 1280 0
-1276 1280 0
-1271 -1276 1281 0
-1262 1282 0
-1266 1282 0
-1262 -1266 1283 0
-1263 1284 0
-1278 1284 0
-1263 -1278 1285 0
-1264 1286 0
-1279 1286 0
-1264 -1279 1287 0
-1265 1288 0
-1280 1288 0
-1265 -1280 1289 0
-1078 1290 0
-1250 1290 0
-1078 -1250 1291 0
-1093 1292 0
-1285 1292 0
-1093 -1285 1293 0
-1291 1294 0
-1292 1294 0
-1291 -1292 1295 0
-1091 1296 0
-1283 1296 0
-1091 -1283 1297 0
-1095 1298 0
-1287 1298 0
-1095 -1287 1299 0
-1297 1300 0
-1298 1300 0
-1297 -1298 1301 0
-1294 1302 0
-1296 1302 0
-1294 -1296 1303 0
-1295 1304 0
-1300 1304 0
-1295 -1300 1305 0
-1090 1306 0
-1282 1306 0
-1090 -1282 1307 0
-1094 1308 0
-1286 1308 0
-1094 -1286 1309 0
-1307 1310 0
-1308 1310 0
-1307 -1308 1311 0
-1092 1312 0
-1284 1312 0
-1092 -1284 1313 0
-1087 1314 0
-1288 1314 0
-1087 -1288 1315 0
-1313 1316 0
-1314 1316 0
-1313 -1314 1317 0
-1310 1318 0
-1312 1318 0
-1310 -1312 1319 0
-1311 1320 0
-1316 1320 0
-1311 -1316 1321 0
-1302 1322 0
-1306 1322 0
-1302 -1306 1323 0
-1303 1324 0
-1318 1324 0
-1303 -1318 1325 0
-1304 1326 0
-1319 1326 0
-1304 -1319 1327 0
-1305 1328 0
-1320 1328 0
-1305 -1320 1329 0
-1328 0
